1 331
2 592
4 742
7 984
1 104
3 526
5 729
5 921
1 0
7 87
6 232
8 385
2 0
5 65
4 262
5 462
3 0
7 248
2 421
8 570
2 84
5 252
7 464
7 659
2 247
3 627
7 793
5 1060
4 0
6 404
6 648
8 982
3 161
3 324
7 724
8 794
